2 30
392 291 
0 39 89 16 7 35 34 1
1 72 93 80 28 97 91 2
2 25 87 34 66 49 7 1
3 13 92 90 39 8 82 1
4 31 85 99 28 87 50 2
5 54 55 63 1 6 93 2
6 83 46 31 73 18 40 2
7 57 65 89 3 47 68 1
8 68 74 20 41 59 91 1
9 12 39 80 94 80 50 2
10 56 61 49 99 55 47 2
11 16 68 89 71 87 45 1
12 56 49 17 100 51 88 1
13 7 45 48 84 7 49 1
14 8 90 81 16 81 51 2
15 81 98 26 20 57 69 1
16 7 42 60 29 54 6 1
17 31 33 68 28 98 57 1
18 4 74 40 97 32 66 1
19 11 91 7 58 17 89 1
20 27 74 23 73 97 73 1
21 40 57 93 23 94 14 1
22 13 77 66 28 79 34 2
23 85 60 78 34 21 51 1
24 74 54 19 72 93 35 2
25 88 93 52 8 54 78 2
26 33 3 62 38 8 57 2
27 45 49 5 87 8 94 2
28 43 63 56 85 5 85 1
29 26 56 42 27 58 13 1
